TCS_Benchmarks/redos_fix/regexlib2_output_distinct_3589_3588_32_0.txt
(3|(52|(4|51)50)0)+(3|(4|51)1)+
(3|(52|(4|51)50)0)+
4.*